(set-info :smt-lib-version 2.6)
(set-logic QF_NIA)
(set-info :source |
     Constraint systems stating that a matrix interpretation is
     compatible with a rewriting system (weakly compatible with
     all rules, strictly compatible with at least one).

     Contributed by Johannes Waldmann at HTKW Leipzig.
   |)
(set-info :category "crafted")
(set-info :status sat)
(declare-fun n0 () Int)
(assert (>= n0 0))
(declare-fun n1 () Int)
(assert (>= n1 0))
(declare-fun n2 () Int)
(assert (>= n2 0))
(declare-fun n3 () Int)
(assert (>= n3 0))
(declare-fun n4 () Int)
(assert (>= n4 0))
(declare-fun n5 () Int)
(assert (>= n5 0))
(declare-fun n6 () Int)
(assert (>= n6 0))
(declare-fun n7 () Int)
(assert (>= n7 0))
(declare-fun n8 () Int)
(assert (= n8 (* n5 n4)))
(declare-fun n9 () Int)
(assert (= n9 (+ n4 n8)))
(declare-fun n10 () Int)
(assert (= n10 (* n5 n5)))
(declare-fun n11 () Int)
(assert (= n11 (* n7 n6)))
(declare-fun n12 () Int)
(assert (= n12 (+ n6 n11)))
(declare-fun n13 () Int)
(assert (= n13 (* n7 n7)))
(declare-fun n14 () Int)
(assert (= n14 (* n1 n9)))
(declare-fun n15 () Int)
(assert (= n15 (+ n0 n14)))
(declare-fun n16 () Int)
(assert (= n16 (* n1 n10)))
(declare-fun n17 () Int)
(assert (= n17 (* n3 n12)))
(declare-fun n18 () Int)
(assert (= n18 (+ n2 n17)))
(declare-fun n19 () Int)
(assert (= n19 (* n3 n13)))
(declare-fun n20 () Int)
(assert (= n20 (* n5 n6)))
(declare-fun n21 () Int)
(assert (= n21 (+ n4 n20)))
(declare-fun n22 () Int)
(assert (= n22 (* n5 n7)))
(declare-fun n23 () Int)
(assert (= n23 (* n10 n4)))
(declare-fun n24 () Int)
(assert (= n24 (+ n9 n23)))
(declare-fun n25 () Int)
(assert (= n25 (* n10 n5)))
(assert (>= n18 n15))
(assert (>= n19 n16))
(declare-fun n26 () Int)
(assert (= n26 (* n1 n4)))
(declare-fun n27 () Int)
(assert (= n27 (+ n0 n26)))
(declare-fun n28 () Int)
(assert (= n28 (* n1 n5)))
(assert (>= n18 n27))
(assert (>= n19 n28))
(assert (>= n18 n0))
(assert (>= n19 n1))
(declare-fun n29 () Int)
(assert (= n29 (* n3 n21)))
(declare-fun n30 () Int)
(assert (= n30 (+ n2 n29)))
(declare-fun n31 () Int)
(assert (= n31 (* n3 n22)))
(assert (>= n15 n30))
(assert (>= n16 n31))
(declare-fun n32 () Int)
(assert (= n32 (* n1 n6)))
(declare-fun n33 () Int)
(assert (= n33 (+ n0 n32)))
(declare-fun n34 () Int)
(assert (= n34 (* n1 n7)))
(assert (>= n15 n33))
(assert (>= n16 n34))
(assert (>= n15 n2))
(assert (>= n16 n3))
(declare-fun n35 () Int)
(assert (= n35 (* n13 n6)))
(declare-fun n36 () Int)
(assert (= n36 (+ n12 n35)))
(declare-fun n37 () Int)
(assert (= n37 (* n13 n7)))
(assert (>= n36 n24))
(assert (>= n37 n25))
(declare-fun n38 () Int)
(assert (= n38 (* n7 n21)))
(declare-fun n39 () Int)
(assert (= n39 (+ n6 n38)))
(declare-fun n40 () Int)
(assert (= n40 (* n7 n22)))
(assert (>= n24 n39))
(assert (>= n25 n40))
(assert (or (> n18 n15) (> n18 n27) (> n18 n0) (> n15 n30) (> n15 n33) (> n15 n2)))
(assert (<= n0 100))
(assert (<= n1 100))
(assert (<= 0 n10))
(assert (<= n10 100))
(assert (<= 0 n11))
(assert (<= n11 100))
(assert (<= 0 n12))
(assert (<= n12 100))
(assert (<= 0 n13))
(assert (<= n13 100))
(assert (<= 0 n14))
(assert (<= n14 100))
(assert (<= 0 n15))
(assert (<= n15 100))
(assert (<= 0 n16))
(assert (<= n16 100))
(assert (<= 0 n17))
(assert (<= n17 100))
(assert (<= 0 n18))
(assert (<= n18 100))
(assert (<= 0 n19))
(assert (<= n19 100))
(assert (<= n2 100))
(assert (<= 0 n20))
(assert (<= n20 100))
(assert (<= 0 n21))
(assert (<= n21 100))
(assert (<= 0 n22))
(assert (<= n22 100))
(assert (<= 0 n23))
(assert (<= n23 100))
(assert (<= 0 n24))
(assert (<= n24 100))
(assert (<= 0 n25))
(assert (<= n25 100))
(assert (<= 0 n26))
(assert (<= n26 100))
(assert (<= 0 n27))
(assert (<= n27 100))
(assert (<= 0 n28))
(assert (<= n28 100))
(assert (<= 0 n29))
(assert (<= n29 100))
(assert (<= n3 100))
(assert (<= 0 n30))
(assert (<= n30 100))
(assert (<= 0 n31))
(assert (<= n31 100))
(assert (<= 0 n32))
(assert (<= n32 100))
(assert (<= 0 n33))
(assert (<= n33 100))
(assert (<= 0 n34))
(assert (<= n34 100))
(assert (<= 0 n35))
(assert (<= n35 100))
(assert (<= 0 n36))
(assert (<= n36 100))
(assert (<= 0 n37))
(assert (<= n37 100))
(assert (<= 0 n38))
(assert (<= n38 100))
(assert (<= 0 n39))
(assert (<= n39 100))
(assert (<= n4 100))
(assert (<= 0 n40))
(assert (<= n40 100))
(assert (<= n5 100))
(assert (<= n6 100))
(assert (<= n7 100))
(assert (<= 0 n8))
(assert (<= n8 100))
(assert (<= 0 n9))
(assert (<= n9 100))
(check-sat)
(exit)
